SPARKNaCl/why3-z3/sparknacl-sign.adb_873_32_range_check4_1.smt2
;; produced by z3_gnatprove.drv ;;
(set-info :smt-lib-version 2.5)
(set-info :source |VC generated by SPARK 2014|)
(set-info :category industrial)
(set-info :status unknown)
;;; generated by SMT-LIB2 driver
;;; SMT-LIB2 driver: bit-vectors, common part
;;; SMT-LIB2: integer arithmetic
(declare-sort byte 0)

;; "to_rep"
(declare-fun to_rep (byte) (_ BitVec 8))

;; "of_rep"
(declare-fun of_rep ((_ BitVec 8)) byte)

;; "inversion_axiom"
(assert
  (forall ((x byte)) (! (= (of_rep (to_rep x)) x) :pattern ((to_rep x)) )))

;; "range_axiom"
(assert true)

;; "coerce_axiom"
(assert
  (forall ((x (_ BitVec 8)))
    (! (= (to_rep (of_rep x)) x) :pattern ((to_rep (of_rep x))) )))

(declare-sort map1 0)

(declare-datatypes ()
  ((map__ref (map__refqtmk (map__content map1)))))

;; "has_bounds"
(declare-fun has_bounds (map1
  Int
  Int) Bool)

;; "get"
(declare-fun get (map1
  Int) byte)

;; "set"
(declare-fun set (map1
  Int
  byte) map1)

;; "set_eq"
(assert
  (forall ((a map1) (i Int) (v byte))
    (! (= (get (set a i v) i) v) :pattern ((set a i v)) )))

;; "set_neq"
(assert
  (forall ((a map1) (i Int) (v byte))
    (! (forall ((j Int))
         (! (=> (not (= i j)) (= (get (set a i v) j) (get a j))) :pattern (
         (get
           a
           j)) :pattern ((get (set a i v) j)) )) :pattern ((set a i v)) )))

;; "set_has_bounds"
(assert
  (forall ((a map1) (i Int) (f Int) (l Int) (v byte))
    (! (=>
         (and (<= f i) (<= i l))
         (=> (has_bounds a f l) (has_bounds (set a i v) f l))) :pattern (
    (has_bounds
      (set a i v)
      f
      l)) )))

(declare-const sk_raw map1)

(declare-datatypes ()
  ((us_split_fields
   (us_split_fieldsqtmk (rec__ada___sparknacl__sign__signing_pk__f map1)))))

(declare-datatypes ()
  ((us_split_fields__ref
   (us_split_fields__refqtmk (us_split_fields__content us_split_fields)))))

(declare-datatypes ()
  ((us_rep (us_repqtmk (us_split_fields1 us_split_fields)))))

;; "dynamic_invariant"
(define-fun dynamic_invariant ((temp___expr_531 us_rep) (temp___is_init_527 Bool) (temp___skip_constant_528 Bool) (temp___do_toplevel_529 Bool) (temp___do_typ_inv_530 Bool)) Bool
  (has_bounds
    (rec__ada___sparknacl__sign__signing_pk__f
      (us_split_fields1 temp___expr_531))
    0
    31))

(declare-datatypes ()
  ((us_split_fields2
   (us_split_fieldsqtmk1 (rec__ada___sparknacl__sign__signing_sk__f map1)))))

(declare-datatypes ()
  ((us_split_fields__ref1
   (us_split_fields__refqtmk1 (us_split_fields__content1 us_split_fields2)))))

(declare-datatypes ()
  ((us_rep1 (us_repqtmk1 (us_split_fields3 us_split_fields2)))))

;; "dynamic_invariant"
(define-fun dynamic_invariant1 ((temp___expr_581 us_rep1) (temp___is_init_577 Bool) (temp___skip_constant_578 Bool) (temp___do_toplevel_579 Bool) (temp___do_typ_inv_580 Bool)) Bool
  (has_bounds
    (rec__ada___sparknacl__sign__signing_sk__f
      (us_split_fields3 temp___expr_581))
    0
    63))

(declare-sort tinteger_32B 0)

;; "tinteger_32B'int"
(declare-fun tinteger_32Bqtint (tinteger_32B) Int)

;; "tinteger_32B'axiom"
(assert
  (forall ((i tinteger_32B))
    (and
      (<= (- 2147483648) (tinteger_32Bqtint i))
      (<= (tinteger_32Bqtint i) 2147483647))))

;; "in_range"
(define-fun in_range ((x Int)) Bool
  (and (<= (- 2147483648) x) (<= x 2147483647)))

;; "to_rep"
(define-fun to_rep1 ((x tinteger_32B)) Int
  (tinteger_32Bqtint x))

;; "of_rep"
(declare-fun of_rep1 (Int) tinteger_32B)

;; "inversion_axiom"
(assert
  (forall ((x tinteger_32B))
    (! (= (of_rep1 (to_rep1 x)) x) :pattern ((to_rep1 x)) )))

;; "range_axiom"
(assert
  (forall ((x tinteger_32B))
    (! (in_range (to_rep1 x)) :pattern ((to_rep1 x)) )))

;; "coerce_axiom"
(assert
  (forall ((x Int))
    (! (=> (in_range x) (= (to_rep1 (of_rep1 x)) x)) :pattern ((to_rep1
                                                                 (of_rep1 x))) )))

(declare-datatypes ()
  ((t (tqtmk (rec__first tinteger_32B)(rec__last tinteger_32B)))))

;; "mk"
(declare-fun mk (Int
  Int) t)

;; "mk_def"
(assert
  (forall ((f Int) (l Int))
    (! (=>
         (in_range f)
         (=>
           (in_range l)
           (and
             (= (to_rep1 (rec__first (mk f l))) f)
             (= (to_rep1 (rec__last (mk f l))) l)))) :pattern ((mk f l)) )))

(declare-datatypes ()
  ((us_t (us_tqtmk (elts map1)(rt t)))))

;; "of_array"
(define-fun of_array ((a map1) (f Int) (l Int)) us_t
  (us_tqtmk a (mk f l)))

(declare-sort gf16_normal_limb 0)

;; "to_rep"
(declare-fun to_rep2 (gf16_normal_limb) (_ BitVec 16))

;; "of_rep"
(declare-fun of_rep2 ((_ BitVec 16)) gf16_normal_limb)

;; "inversion_axiom"
(assert
  (forall ((x gf16_normal_limb))
    (! (= (of_rep2 (to_rep2 x)) x) :pattern ((to_rep2 x)) )))

;; "range_axiom"
(assert true)

;; "coerce_axiom"
(assert
  (forall ((x (_ BitVec 16)))
    (! (= (to_rep2 (of_rep2 x)) x) :pattern ((to_rep2 (of_rep2 x))) )))

(declare-const pk__split_fields map1)

(declare-const sk__split_fields map1)

(declare-const d map1)

(declare-const lpk map1)

;; "lpk'unused"
(define-fun lpkqtunused () map__ref
  (map__refqtmk lpk))

;; "d'unused"
(define-fun dqtunused () map__ref
  (map__refqtmk d))

;; "sk__split_fields'unused"
(define-fun sk__split_fieldsqtunused () us_split_fields__ref1
  (us_split_fields__refqtmk1 (us_split_fieldsqtmk1 sk__split_fields)))

;; "pk__split_fields'unused"
(define-fun pk__split_fieldsqtunused () us_split_fields__ref
  (us_split_fields__refqtmk (us_split_fieldsqtmk pk__split_fields)))

;; "Assume"
(assert (has_bounds sk_raw 0 31))

;; "Assume"
(assert
  (dynamic_invariant
    (us_repqtmk (us_split_fieldsqtmk pk__split_fields))
    false
    false
    true
    true))

;; "Assume"
(assert
  (dynamic_invariant1
    (us_repqtmk1 (us_split_fieldsqtmk1 sk__split_fields))
    false
    false
    true
    true))

;; "Assume"
(assert true)

;; "Assume"
(assert (has_bounds d 0 63))

;; "Assume"
(assert true)

;; "Assume"
(assert (has_bounds lpk 0 31))

;; "map__content'result'unused"
(define-fun map__contentqtresultqtunused () map1
  d)

;; "param__output'unused"
(define-fun param__outputqtunused () map__ref
  (map__refqtmk d))

;; "map__ref'mk'result'unused"
(define-fun map__refqtmkqtresultqtunused () map__ref
  (map__refqtmk d))

;; "of_array'result'unused"
(define-fun of_arrayqtresultqtunused () us_t
  (of_array sk_raw 0 31))

(declare-const param__output map1)

;; "param__output'unused"
(define-fun param__outputqtunused1 () map__ref
  (map__refqtmk param__output))

;; "H"
(assert (has_bounds param__output 0 63))

;; "H"
(assert true)

;; "H"
(assert true)

;; "map__content'result'unused"
(define-fun map__contentqtresultqtunused1 () map1
  param__output)

(declare-const d1 map1)

;; "d'unused"
(define-fun dqtunused1 () map__ref
  (map__refqtmk d1))

;; "H"
(assert (= d1 param__output))

;; "map__content'result'unused"
(define-fun map__contentqtresultqtunused2 () map1
  d1)

;; "o"
(define-fun o () byte
  (get d1 0))

;; "get'result'unused"
(define-fun getqtresultqtunused () byte
  o)

(declare-const o1 (_ BitVec 8))

;; "Ensures"
(assert (= (to_rep o) o1))

;; "to_rep'result'unused"
(define-fun to_repqtresultqtunused () (_ BitVec 8)
  o1)

;; "o"
(define-fun o2 () (_ BitVec 8)
  (bvand o1 #xF8))

;; "bw_and'result'unused"
(define-fun bw_andqtresultqtunused () (_ BitVec 8)
  o2)

(declare-const o3 byte)

;; "Ensures"
(assert (= (to_rep o3) o2))

;; "of_rep'result'unused"
(define-fun of_repqtresultqtunused () byte
  o3)

;; "map__content'result'unused"
(define-fun map__contentqtresultqtunused3 () map1
  d1)

;; "o"
(define-fun o4 () map1
  (set d1 0 o3))

;; "set'result'unused"
(define-fun setqtresultqtunused () map1
  o4)

(declare-const d2 map1)

;; "d'unused"
(define-fun dqtunused2 () map__ref
  (map__refqtmk d2))

;; "H"
(assert (= d2 o4))

;; "map__content'result'unused"
(define-fun map__contentqtresultqtunused4 () map1
  d2)

;; "o"
(define-fun o5 () byte
  (get d2 31))

;; "get'result'unused"
(define-fun getqtresultqtunused1 () byte
  o5)

(declare-const o6 (_ BitVec 8))

;; "Ensures"
(assert (= (to_rep o5) o6))

;; "to_rep'result'unused"
(define-fun to_repqtresultqtunused1 () (_ BitVec 8)
  o6)

;; "o"
(define-fun o7 () (_ BitVec 8)
  (bvand o6 #x7F))

;; "bw_and'result'unused"
(define-fun bw_andqtresultqtunused1 () (_ BitVec 8)
  o7)

;; "o"
(define-fun o8 () (_ BitVec 8)
  (bvor o7 #x40))

;; "bw_or'result'unused"
(define-fun bw_orqtresultqtunused () (_ BitVec 8)
  o8)

(declare-const o9 byte)

;; "Ensures"
(assert (= (to_rep o9) o8))

;; "of_rep'result'unused"
(define-fun of_repqtresultqtunused1 () byte
  o9)

;; "map__content'result'unused"
(define-fun map__contentqtresultqtunused5 () map1
  d2)

;; "o"
(define-fun o10 () map1
  (set d2 31 o9))

;; "set'result'unused"
(define-fun setqtresultqtunused1 () map1
  o10)

(declare-const d3 map1)

;; "d'unused"
(define-fun dqtunused3 () map__ref
  (map__refqtmk d3))

;; "H"
(assert (= d3 o10))

;; "H"
(assert (<= 0 31))

;; Goal "def'vc"
;; File "sparknacl-sign.ads", line 14, characters 0-0
(assert
  (not (<= 31 63)))

(check-sat)
